# Solution for model r10_t27_m9_2
# Finished Task: 27 / 27
# Makespan: 693.0, Total Distance: 1649.0, Total Time: 0.7085
# R O S F
0 0 14 0.0 0.0
1 1 24 0.0 0.0
2 2 31 0.0 0.0
3 3 35 0.0 0.0
4 4 12 0.0 0.0
5 5 10 0.0 0.0
6 6 19 0.0 0.0
7 7 21 0.0 0.0
8 8 23 0.0 0.0
9 9 32 0.0 0.0
10 5 13 55.0 83.0
11 7 -1 500.0 527.0
12 4 15 251.0 287.0
13 5 20 313.0 346.0
14 0 27 421.0 451.0
15 4 30 385.0 414.0
16 6 -1 552.0 590.0
17 8 -1 452.0 483.0
18 3 28 455.0 484.0
19 6 16 380.0 401.0
20 5 -1 484.0 513.0
21 7 22 288.0 311.0
22 7 26 330.0 366.0
23 8 25 214.0 248.0
24 1 29 221.0 259.0
25 8 17 368.0 391.0
26 7 11 427.0 455.0
27 0 33 519.0 552.0
28 3 -1 621.0 644.0
29 1 -1 523.0 561.0
30 4 -1 611.0 647.0
31 2 -1 598.0 636.0
32 9 34 325.0 350.0
33 0 36 610.0 638.0
34 9 -1 430.0 456.0
35 3 18 391.0 427.0
36 0 -1 663.0 693.0
